NAME          DCAP_3_3_2_300_SS79
ROWS
 N  OBJ
 L  CON1
 L  CON2
 L  CON3
 L  CON4
 L  CON5
 L  CON6
 L  CON7
 L  CON8
 L  CON9
 L  CON10
 L  CON11
 L  CON12
 E  CON13
 E  CON14
 E  CON15
 E  CON16
 E  CON17
 E  CON18
COLUMNS
    x[1,1]    OBJ       6.180167      CON1      1.000000    
    x[1,1]    CON7      -1.000000     CON8      -1.000000   
    x[1,2]    OBJ       5.039546      CON2      1.000000    
    x[1,2]    CON8      -1.000000   
    x[2,1]    OBJ       6.732585      CON3      1.000000    
    x[2,1]    CON9      -1.000000     CON10     -1.000000   
    x[2,2]    OBJ       7.443064      CON4      1.000000    
    x[2,2]    CON10     -1.000000   
    x[3,1]    OBJ       6.563535      CON5      1.000000    
    x[3,1]    CON11     -1.000000     CON12     -1.000000   
    x[3,2]    OBJ       6.054841      CON6      1.000000    
    x[3,2]    CON12     -1.000000   
    MARKER    'MARKER'                'INTORG'
    u[1,1]    OBJ       48.076654     CON1      -1.000000   
    u[1,2]    OBJ       49.466655     CON2      -1.000000   
    u[2,1]    OBJ       49.996186     CON3      -1.000000   
    u[2,2]    OBJ       32.230043     CON4      -1.000000   
    u[3,1]    OBJ       20.066487     CON5      -1.000000   
    u[3,2]    OBJ       27.484319     CON6      -1.000000   
    y[1,1,1]  OBJ       8.616938      CON7      0.802115    
    y[1,1,1]  CON13     1.000000    
    y[1,1,2]  OBJ       5.390948      CON8      1.494043    
    y[1,1,2]  CON14     1.000000    
    y[1,2,1]  OBJ       7.129664      CON7      0.680296    
    y[1,2,1]  CON15     1.000000    
    y[1,2,2]  OBJ       8.599881      CON8      1.415669    
    y[1,2,2]  CON16     1.000000    
    y[1,3,1]  OBJ       9.439880      CON7      0.705261    
    y[1,3,1]  CON17     1.000000    
    y[1,3,2]  OBJ       7.954260      CON8      0.747101    
    y[1,3,2]  CON18     1.000000    
    y[2,1,1]  OBJ       5.452860      CON9      0.802115    
    y[2,1,1]  CON13     1.000000    
    y[2,1,2]  OBJ       9.278646      CON10     1.494043    
    y[2,1,2]  CON14     1.000000    
    y[2,2,1]  OBJ       5.088666      CON9      0.680296    
    y[2,2,1]  CON15     1.000000    
    y[2,2,2]  OBJ       8.041452      CON10     1.415669    
    y[2,2,2]  CON16     1.000000    
    y[2,3,1]  OBJ       5.700461      CON9      0.705261    
    y[2,3,1]  CON17     1.000000    
    y[2,3,2]  OBJ       6.016631      CON10     0.747101    
    y[2,3,2]  CON18     1.000000    
    y[3,1,1]  OBJ       8.864755      CON11     0.802115    
    y[3,1,1]  CON13     1.000000    
    y[3,1,2]  OBJ       8.660388      CON12     1.494043    
    y[3,1,2]  CON14     1.000000    
    y[3,2,1]  OBJ       8.055381      CON11     0.680296    
    y[3,2,1]  CON15     1.000000    
    y[3,2,2]  OBJ       7.252761      CON12     1.415669    
    y[3,2,2]  CON16     1.000000    
    y[3,3,1]  OBJ       6.793778      CON11     0.705261    
    y[3,3,1]  CON17     1.000000    
    y[3,3,2]  OBJ       6.760997      CON12     0.747101    
    y[3,3,2]  CON18     1.000000    
    z[1,1]    OBJ       913.300968    CON13     1.000000    
    z[1,2]    OBJ       859.107434    CON14     1.000000    
    z[2,1]    OBJ       948.623916    CON15     1.000000    
    z[2,2]    OBJ       942.108549    CON16     1.000000    
    z[3,1]    OBJ       593.427416    CON17     1.000000    
    z[3,2]    OBJ       516.989725    CON18     1.000000    
    MARKER    'MARKER'                 'INTEND'
RHS
    RHS       CON1      -0.000000     CON2      -0.000000   
    RHS       CON3      -0.000000     CON4      -0.000000   
    RHS       CON5      -0.000000     CON6      -0.000000   
    RHS       CON7      -0.000000     CON8      -0.000000   
    RHS       CON9      -0.000000     CON10     -0.000000   
    RHS       CON11     -0.000000     CON12     -0.000000   
    RHS       CON13     1.000000      CON14     1.000000    
    RHS       CON15     1.000000      CON16     1.000000    
    RHS       CON17     1.000000      CON18     1.000000    
BOUNDS
 BV BOUND     u[1,1]  
 BV BOUND     u[1,2]  
 BV BOUND     u[2,1]  
 BV BOUND     u[2,2]  
 BV BOUND     u[3,1]  
 BV BOUND     u[3,2]  
 BV BOUND     y[1,1,1]
 BV BOUND     y[1,1,2]
 BV BOUND     y[1,2,1]
 BV BOUND     y[1,2,2]
 BV BOUND     y[1,3,1]
 BV BOUND     y[1,3,2]
 BV BOUND     y[2,1,1]
 BV BOUND     y[2,1,2]
 BV BOUND     y[2,2,1]
 BV BOUND     y[2,2,2]
 BV BOUND     y[2,3,1]
 BV BOUND     y[2,3,2]
 BV BOUND     y[3,1,1]
 BV BOUND     y[3,1,2]
 BV BOUND     y[3,2,1]
 BV BOUND     y[3,2,2]
 BV BOUND     y[3,3,1]
 BV BOUND     y[3,3,2]
 BV BOUND     z[1,1]  
 BV BOUND     z[1,2]  
 BV BOUND     z[2,1]  
 BV BOUND     z[2,2]  
 BV BOUND     z[3,1]  
 BV BOUND     z[3,2]  
ENDATA
